Route #1: 19 43 20 3 49 51 38 37 44 24 16 17 33
Route #2: 23 5 29 27 9 28 32 47 11 41 45 50 31 30 39
Route #3: 14 53 25 12 35 22
Route #4: 10 42 8 18 48 13 46
Route #5: 1 40 15 6
Route #6: 7 36 52 21 2
Route #7: 26 4 34
cost 1475.326889653201
